c turning on binary mode checking
c parsing input formula with 259840 variables and 1039934 clauses
c finished parsing, read 23195112 bytes from proof file
c detected empty clause; start verification via backward checking
c 18334 of 1039934 clauses in core                            
c 22945 of 602970 lemmas in core using 153846 resolution steps
c 0 RAT lemmas in core; 1482 redundant literals in core lemmas
s VERIFIED
c verification time: 3.049 seconds
